Score: 71
1 0 1 2 3 4 5 6 7 8 9 10 11 12 13 14 15 16 17 18 19 20 21 22 23 24 25 26 27 28 29 30 31 32 33 34 35 36 37 38 39 40 41 42 43 44 45 46 47 48 49 50 51 52 53 54 55 56 57 58 59 60 61 62 127 128 129 130 131 132 133 134 135 136 137 138 139 140 141 142 143 144 145 146 147 148 149 150 151 152 153 154 155 156 157 158 159 160 161 162 163 164 165 166 167 168 169 170 171 172 173 174 175 176 177 178 179 180 181 182 183 184 185 186 187 188 189 190
1 0 1 2 3 4 5 6 7 8 9 10 11 12 13 14 15 16 17 18 19 20 21 22 23 24 25 26 27 28 29 30 63 64 65 66 67 68 69 70 71 72 73 74 75 76 77 78 79 80 81 82 83 84 85 86 87 88 89 90 91 92 93 94 127 128 129 130 131 132 133 134 135 136 137 138 139 140 141 142 143 144 145 146 147 148 149 150 151 152 153 154 155 156 157 158 191 192 193 194 195 196 197 198 199 200 201 202 203 204 205 206 207 208 209 210 211 212 213 214 215 216 217 218 219 220 221 222
1 0 1 2 7 8 9 10 15 16 17 18 23 24 25 26 31 32 33 34 39 40 41 42 47 48 49 50 55 56 57 58 63 64 65 66 71 72 73 74 79 80 81 82 87 88 89 90 95 96 97 98 103 104 105 106 111 112 113 114 119 120 121 122 127 128 129 130 135 136 137 138 143 144 145 146 151 152 153 154 159 160 161 162 167 168 169 170 175 176 177 178 183 184 185 186 191 192 193 194 199 200 201 202 207 208 209 210 215 216 217 218 223 224 225 226 231 232 233 234 239 240 241 242 247 248 249 250
1 0 1 2 3 4 5 6 15 16 17 18 19 20 21 22 31 32 33 34 35 36 37 38 47 48 49 50 51 52 53 54 63 64 65 66 67 68 69 70 79 80 81 82 83 84 85 86 95 96 97 98 99 100 101 102 111 112 113 114 115 116 117 118 255 256 257 258 259 260 261 262 271 272 273 274 275 276 277 278 287 288 289 290 291 292 293 294 303 304 305 306 307 308 309 310 319 320 321 322 323 324 325 326 335 336 337 338 339 340 341 342 351 352 353 354 355 356 357 358 367 368 369 370 371 372 373 374
1 0 1 2 7 8 9 10 15 16 17 18 23 24 25 26 31 32 33 34 39 40 41 42 47 48 49 50 55 56 57 58 63 64 65 66 71 72 73 74 79 80 81 82 87 88 89 90 95 96 97 98 103 104 105 106 111 112 113 114 119 120 121 122 255 256 257 258 263 264 265 266 271 272 273 274 279 280 281 282 287 288 289 290 295 296 297 298 303 304 305 306 311 312 313 314 319 320 321 322 327 328 329 330 335 336 337 338 343 344 345 346 351 352 353 354 359 360 361 362 367 368 369 370 375 376 377 378
1 1 3 5 7 9 11 13 15 17 19 21 23 25 27 29 31 33 35 37 39 41 43 45 47 49 51 53 55 57 59 61 63 65 67 69 71 73 75 77 79 81 83 85 87 89 91 93 95 97 99 101 103 105 107 109 111 113 115 117 119 121 123 125 255 257 259 261 263 265 267 269 271 273 275 277 279 281 283 285 287 289 291 293 295 297 299 301 303 305 307 309 311 313 315 317 319 321 323 325 327 329 331 333 335 337 339 341 343 345 347 349 351 353 355 357 359 361 363 365 367 369 371 373 375 377 379 381
1 1 3 5 7 9 11 13 15 17 19 21 23 25 27 29 63 65 67 69 71 73 75 77 79 81 83 85 87 89 91 93 127 129 131 133 135 137 139 141 143 145 147 149 151 153 155 157 191 193 195 197 199 201 203 205 207 209 211 213 215 217 219 221 255 257 259 261 263 265 267 269 271 273 275 277 279 281 283 285 319 321 323 325 327 329 331 333 335 337 339 341 343 345 347 349 383 385 387 389 391 393 395 397 399 401 403 405 407 409 411 413 447 449 451 453 455 457 459 461 463 465 467 469 471 473 475 477
1 0 1 2 3 4 5 6 7 8 9 10 11 12 13 14 15 16 17 18 19 20 21 22 23 24 25 26 27 28 29 30 31 32 33 34 35 36 37 38 39 40 41 42 43 44 45 46 47 48 49 50 51 52 53 54 55 56 57 58 59 60 61 62 511 512 513 514 515 516 517 518 519 520 521 522 523 524 525 526 527 528 529 530 531 532 533 534 535 536 537 538 539 540 541 542 543 544 545 546 547 548 549 550 551 552 553 554 555 556 557 558 559 560 561 562 563 564 565 566 567 568 569 570 571 572 573 574
1 0 1 2 7 8 9 10 15 16 17 18 23 24 25 26 31 32 33 34 39 40 41 42 47 48 49 50 55 56 57 58 63 64 65 66 71 72 73 74 79 80 81 82 87 88 89 90 95 96 97 98 103 104 105 106 111 112 113 114 119 120 121 122 511 512 513 514 519 520 521 522 527 528 529 530 535 536 537 538 543 544 545 546 551 552 553 554 559 560 561 562 567 568 569 570 575 576 577 578 583 584 585 586 591 592 593 594 599 600 601 602 607 608 609 610 615 616 617 618 623 624 625 626 631 632 633 634
1 0 1 2 3 4 5 6 15 16 17 18 19 20 21 22 63 64 65 66 67 68 69 70 79 80 81 82 83 84 85 86 127 128 129 130 131 132 133 134 143 144 145 146 147 148 149 150 191 192 193 194 195 196 197 198 207 208 209 210 211 212 213 214 511 512 513 514 515 516 517 518 527 528 529 530 531 532 533 534 575 576 577 578 579 580 581 582 591 592 593 594 595 596 597 598 639 640 641 642 643 644 645 646 655 656 657 658 659 660 661 662 703 704 705 706 707 708 709 710 719 720 721 722 723 724 725 726
1 0 1 2 7 8 9 10 31 32 33 34 39 40 41 42 63 64 65 66 71 72 73 74 95 96 97 98 103 104 105 106 127 128 129 130 135 136 137 138 159 160 161 162 167 168 169 170 191 192 193 194 199 200 201 202 223 224 225 226 231 232 233 234 511 512 513 514 519 520 521 522 543 544 545 546 551 552 553 554 575 576 577 578 583 584 585 586 607 608 609 610 615 616 617 618 639 640 641 642 647 648 649 650 671 672 673 674 679 680 681 682 703 704 705 706 711 712 713 714 735 736 737 738 743 744 745 746
1 1 3 5 7 9 11 13 31 33 35 37 39 41 43 45 63 65 67 69 71 73 75 77 95 97 99 101 103 105 107 109 127 129 131 133 135 137 139 141 159 161 163 165 167 169 171 173 191 193 195 197 199 201 203 205 223 225 227 229 231 233 235 237 511 513 515 517 519 521 523 525 543 545 547 549 551 553 555 557 575 577 579 581 583 585 587 589 607 609 611 613 615 617 619 621 639 641 643 645 647 649 651 653 671 673 675 677 679 681 683 685 703 705 707 709 711 713 715 717 735 737 739 741 743 745 747 749
1 0 1 2 3 4 5 6 7 8 9 10 11 12 13 14 15 16 17 18 19 20 21 22 23 24 25 26 27 28 29 30 255 256 257 258 259 260 261 262 263 264 265 266 267 268 269 270 271 272 273 274 275 276 277 278 279 280 281 282 283 284 285 286 511 512 513 514 515 516 517 518 519 520 521 522 523 524 525 526 527 528 529 530 531 532 533 534 535 536 537 538 539 540 541 542 767 768 769 770 771 772 773 774 775 776 777 778 779 780 781 782 783 784 785 786 787 788 789 790 791 792 793 794 795 796 797 798
1 0 1 2 3 4 5 6 15 16 17 18 19 20 21 22 31 32 33 34 35 36 37 38 47 48 49 50 51 52 53 54 255 256 257 258 259 260 261 262 271 272 273 274 275 276 277 278 287 288 289 290 291 292 293 294 303 304 305 306 307 308 309 310 511 512 513 514 515 516 517 518 527 528 529 530 531 532 533 534 543 544 545 546 547 548 549 550 559 560 561 562 563 564 565 566 767 768 769 770 771 772 773 774 783 784 785 786 787 788 789 790 799 800 801 802 803 804 805 806 815 816 817 818 819 820 821 822
1 0 1 2 7 8 9 10 15 16 17 18 23 24 25 26 31 32 33 34 39 40 41 42 47 48 49 50 55 56 57 58 255 256 257 258 263 264 265 266 271 272 273 274 279 280 281 282 287 288 289 290 295 296 297 298 303 304 305 306 311 312 313 314 511 512 513 514 519 520 521 522 527 528 529 530 535 536 537 538 543 544 545 546 551 552 553 554 559 560 561 562 567 568 569 570 767 768 769 770 775 776 777 778 783 784 785 786 791 792 793 794 799 800 801 802 807 808 809 810 815 816 817 818 823 824 825 826
1 0 1 2 7 8 9 10 31 32 33 34 39 40 41 42 63 64 65 66 71 72 73 74 95 96 97 98 103 104 105 106 255 256 257 258 263 264 265 266 287 288 289 290 295 296 297 298 319 320 321 322 327 328 329 330 351 352 353 354 359 360 361 362 511 512 513 514 519 520 521 522 543 544 545 546 551 552 553 554 575 576 577 578 583 584 585 586 607 608 609 610 615 616 617 618 767 768 769 770 775 776 777 778 799 800 801 802 807 808 809 810 831 832 833 834 839 840 841 842 863 864 865 866 871 872 873 874
1 0 3 4 7 8 11 12 15 16 19 20 23 24 27 28 127 128 131 132 135 136 139 140 143 144 147 148 151 152 155 156 255 256 259 260 263 264 267 268 271 272 275 276 279 280 283 284 383 384 387 388 391 392 395 396 399 400 403 404 407 408 411 412 511 512 515 516 519 520 523 524 527 528 531 532 535 536 539 540 639 640 643 644 647 648 651 652 655 656 659 660 663 664 667 668 767 768 771 772 775 776 779 780 783 784 787 788 791 792 795 796 895 896 899 900 903 904 907 908 911 912 915 916 919 920 923 924
1 0 1 2 15 16 17 18 31 32 33 34 47 48 49 50 127 128 129 130 143 144 145 146 159 160 161 162 175 176 177 178 255 256 257 258 271 272 273 274 287 288 289 290 303 304 305 306 383 384 385 386 399 400 401 402 415 416 417 418 431 432 433 434 511 512 513 514 527 528 529 530 543 544 545 546 559 560 561 562 639 640 641 642 655 656 657 658 671 672 673 674 687 688 689 690 767 768 769 770 783 784 785 786 799 800 801 802 815 816 817 818 895 896 897 898 911 912 913 914 927 928 929 930 943 944 945 946
1 3 7 11 15 19 23 27 31 35 39 43 47 51 55 59 127 131 135 139 143 147 151 155 159 163 167 171 175 179 183 187 255 259 263 267 271 275 279 283 287 291 295 299 303 307 311 315 383 387 391 395 399 403 407 411 415 419 423 427 431 435 439 443 511 515 519 523 527 531 535 539 543 547 551 555 559 563 567 571 639 643 647 651 655 659 663 667 671 675 679 683 687 691 695 699 767 771 775 779 783 787 791 795 799 803 807 811 815 819 823 827 895 899 903 907 911 915 919 923 927 931 935 939 943 947 951 955
1 1 3 5 7 9 11 13 63 65 67 69 71 73 75 77 127 129 131 133 135 137 139 141 191 193 195 197 199 201 203 205 255 257 259 261 263 265 267 269 319 321 323 325 327 329 331 333 383 385 387 389 391 393 395 397 447 449 451 453 455 457 459 461 511 513 515 517 519 521 523 525 575 577 579 581 583 585 587 589 639 641 643 645 647 649 651 653 703 705 707 709 711 713 715 717 767 769 771 773 775 777 779 781 831 833 835 837 839 841 843 845 895 897 899 901 903 905 907 909 959 961 963 965 967 969 971 973
1 0 3 4 15 16 19 20 63 64 67 68 79 80 83 84 127 128 131 132 143 144 147 148 191 192 195 196 207 208 211 212 255 256 259 260 271 272 275 276 319 320 323 324 335 336 339 340 383 384 387 388 399 400 403 404 447 448 451 452 463 464 467 468 511 512 515 516 527 528 531 532 575 576 579 580 591 592 595 596 639 640 643 644 655 656 659 660 703 704 707 708 719 720 723 724 767 768 771 772 783 784 787 788 831 832 835 836 847 848 851 852 895 896 899 900 911 912 915 916 959 960 963 964 975 976 979 980
1 0 7 8 15 16 23 24 63 64 71 72 79 80 87 88 127 128 135 136 143 144 151 152 191 192 199 200 207 208 215 216 255 256 263 264 271 272 279 280 319 320 327 328 335 336 343 344 383 384 391 392 399 400 407 408 447 448 455 456 463 464 471 472 511 512 519 520 527 528 535 536 575 576 583 584 591 592 599 600 639 640 647 648 655 656 663 664 703 704 711 712 719 720 727 728 767 768 775 776 783 784 791 792 831 832 839 840 847 848 855 856 895 896 903 904 911 912 919 920 959 960 967 968 975 976 983 984
1 3 7 11 15 19 23 27 63 67 71 75 79 83 87 91 127 131 135 139 143 147 151 155 191 195 199 203 207 211 215 219 255 259 263 267 271 275 279 283 319 323 327 331 335 339 343 347 383 387 391 395 399 403 407 411 447 451 455 459 463 467 471 475 511 515 519 523 527 531 535 539 575 579 583 587 591 595 599 603 639 643 647 651 655 659 663 667 703 707 711 715 719 723 727 731 767 771 775 779 783 787 791 795 831 835 839 843 847 851 855 859 895 899 903 907 911 915 919 923 959 963 967 971 975 979 983 987
1 0 3 4 31 32 35 36 63 64 67 68 95 96 99 100 127 128 131 132 159 160 163 164 191 192 195 196 223 224 227 228 255 256 259 260 287 288 291 292 319 320 323 324 351 352 355 356 383 384 387 388 415 416 419 420 447 448 451 452 479 480 483 484 511 512 515 516 543 544 547 548 575 576 579 580 607 608 611 612 639 640 643 644 671 672 675 676 703 704 707 708 735 736 739 740 767 768 771 772 799 800 803 804 831 832 835 836 863 864 867 868 895 896 899 900 927 928 931 932 959 960 963 964 991 992 995 996
1 0 15 16 31 32 47 48 63 64 79 80 95 96 111 112 127 128 143 144 159 160 175 176 191 192 207 208 223 224 239 240 255 256 271 272 287 288 303 304 319 320 335 336 351 352 367 368 383 384 399 400 415 416 431 432 447 448 463 464 479 480 495 496 511 512 527 528 543 544 559 560 575 576 591 592 607 608 623 624 639 640 655 656 671 672 687 688 703 704 719 720 735 736 751 752 767 768 783 784 799 800 815 816 831 832 847 848 863 864 879 880 895 896 911 912 927 928 943 944 959 960 975 976 991 992 1007 1008
1 0 1 2 3 4 5 6 7 8 9 10 11 12 13 14 15 16 17 18 19 20 21 22 23 24 25 26 27 28 29 30 31 32 33 34 35 36 37 38 39 40 41 42 43 44 45 46 47 48 49 50 51 52 53 54 55 56 57 58 59 60 61 62 959 960 961 962 963 964 965 966 967 968 969 970 971 972 973 974 975 976 977 978 979 980 981 982 983 984 985 986 987 988 989 990 991 992 993 994 995 996 997 998 999 1000 1001 1002 1003 1004 1005 1006 1007 1008 1009 1010 1011 1012 1013 1014 1015 1016 1017 1018 1019 1020 1021 1022
1 0 1 2 3 4 5 6 7 8 9 10 11 12 13 14 31 32 33 34 35 36 37 38 39 40 41 42 43 44 45 46 63 64 65 66 67 68 69 70 71 72 73 74 75 76 77 78 95 96 97 98 99 100 101 102 103 104 105 106 107 108 109 110 911 912 913 914 915 916 917 918 919 920 921 922 923 924 925 926 943 944 945 946 947 948 949 950 951 952 953 954 955 956 957 958 975 976 977 978 979 980 981 982 983 984 985 986 987 988 989 990 1007 1008 1009 1010 1011 1012 1013 1014 1015 1016 1017 1018 1019 1020 1021 1022
1 0 1 2 3 4 5 6 7 8 9 10 11 12 13 14 31 32 33 34 35 36 37 38 39 40 41 42 43 44 45 46 127 128 129 130 131 132 133 134 135 136 137 138 139 140 141 142 159 160 161 162 163 164 165 166 167 168 169 170 171 172 173 174 847 848 849 850 851 852 853 854 855 856 857 858 859 860 861 862 879 880 881 882 883 884 885 886 887 888 889 890 891 892 893 894 975 976 977 978 979 980 981 982 983 984 985 986 987 988 989 990 1007 1008 1009 1010 1011 1012 1013 1014 1015 1016 1017 1018 1019 1020 1021 1022
1 0 1 2 3 4 5 6 15 16 17 18 19 20 21 22 31 32 33 34 35 36 37 38 47 48 49 50 51 52 53 54 127 128 129 130 131 132 133 134 143 144 145 146 147 148 149 150 159 160 161 162 163 164 165 166 175 176 177 178 179 180 181 182 839 840 841 842 843 844 845 846 855 856 857 858 859 860 861 862 871 872 873 874 875 876 877 878 887 888 889 890 891 892 893 894 967 968 969 970 971 972 973 974 983 984 985 986 987 988 989 990 999 1000 1001 1002 1003 1004 1005 1006 1015 1016 1017 1018 1019 1020 1021 1022
1 0 1 2 7 8 9 10 15 16 17 18 23 24 25 26 31 32 33 34 39 40 41 42 47 48 49 50 55 56 57 58 255 256 257 258 263 264 265 266 271 272 273 274 279 280 281 282 287 288 289 290 295 296 297 298 303 304 305 306 311 312 313 314 707 708 709 710 715 716 717 718 723 724 725 726 731 732 733 734 739 740 741 742 747 748 749 750 755 756 757 758 763 764 765 766 963 964 965 966 971 972 973 974 979 980 981 982 987 988 989 990 995 996 997 998 1003 1004 1005 1006 1011 1012 1013 1014 1019 1020 1021 1022
1 0 3 4 7 8 11 12 15 16 19 20 23 24 27 28 31 32 35 36 39 40 43 44 47 48 51 52 55 56 59 60 255 256 259 260 263 264 267 268 271 272 275 276 279 280 283 284 287 288 291 292 295 296 299 300 303 304 307 308 311 312 315 316 705 706 709 710 713 714 717 718 721 722 725 726 729 730 733 734 737 738 741 742 745 746 749 750 753 754 757 758 761 762 765 766 961 962 965 966 969 970 973 974 977 978 981 982 985 986 989 990 993 994 997 998 1001 1002 1005 1006 1009 1010 1013 1014 1017 1018 1021 1022
1 0 3 4 7 8 11 12 15 16 19 20 23 24 27 28 63 64 67 68 71 72 75 76 79 80 83 84 87 88 91 92 255 256 259 260 263 264 267 268 271 272 275 276 279 280 283 284 319 320 323 324 327 328 331 332 335 336 339 340 343 344 347 348 673 674 677 678 681 682 685 686 689 690 693 694 697 698 701 702 737 738 741 742 745 746 749 750 753 754 757 758 761 762 765 766 929 930 933 934 937 938 941 942 945 946 949 950 953 954 957 958 993 994 997 998 1001 1002 1005 1006 1009 1010 1013 1014 1017 1018 1021 1022
1 0 3 4 7 8 11 12 31 32 35 36 39 40 43 44 63 64 67 68 71 72 75 76 95 96 99 100 103 104 107 108 255 256 259 260 263 264 267 268 287 288 291 292 295 296 299 300 319 320 323 324 327 328 331 332 351 352 355 356 359 360 363 364 657 658 661 662 665 666 669 670 689 690 693 694 697 698 701 702 721 722 725 726 729 730 733 734 753 754 757 758 761 762 765 766 913 914 917 918 921 922 925 926 945 946 949 950 953 954 957 958 977 978 981 982 985 986 989 990 1009 1010 1013 1014 1017 1018 1021 1022
1 1 3 5 7 9 11 13 31 33 35 37 39 41 43 45 63 65 67 69 71 73 75 77 95 97 99 101 103 105 107 109 255 257 259 261 263 265 267 269 287 289 291 293 295 297 299 301 319 321 323 325 327 329 331 333 351 353 355 357 359 361 363 365 656 658 660 662 664 666 668 670 688 690 692 694 696 698 700 702 720 722 724 726 728 730 732 734 752 754 756 758 760 762 764 766 912 914 916 918 920 922 924 926 944 946 948 950 952 954 956 958 976 978 980 982 984 986 988 990 1008 1010 1012 1014 1016 1018 1020 1022
1 1 7 9 15 17 23 25 31 33 39 41 47 49 55 57 63 65 71 73 79 81 87 89 95 97 103 105 111 113 119 121 255 257 263 265 271 273 279 281 287 289 295 297 303 305 311 313 319 321 327 329 335 337 343 345 351 353 359 361 367 369 375 377 644 646 652 654 660 662 668 670 676 678 684 686 692 694 700 702 708 710 716 718 724 726 732 734 740 742 748 750 756 758 764 766 900 902 908 910 916 918 924 926 932 934 940 942 948 950 956 958 964 966 972 974 980 982 988 990 996 998 1004 1006 1012 1014 1020 1022
1 0 1 2 3 4 5 6 7 8 9 10 11 12 13 14 127 128 129 130 131 132 133 134 135 136 137 138 139 140 141 142 255 256 257 258 259 260 261 262 263 264 265 266 267 268 269 270 383 384 385 386 387 388 389 390 391 392 393 394 395 396 397 398 623 624 625 626 627 628 629 630 631 632 633 634 635 636 637 638 751 752 753 754 755 756 757 758 759 760 761 762 763 764 765 766 879 880 881 882 883 884 885 886 887 888 889 890 891 892 893 894 1007 1008 1009 1010 1011 1012 1013 1014 1015 1016 1017 1018 1019 1020 1021 1022
1 1 3 5 7 9 11 13 15 17 19 21 23 25 27 29 127 129 131 133 135 137 139 141 143 145 147 149 151 153 155 157 255 257 259 261 263 265 267 269 271 273 275 277 279 281 283 285 383 385 387 389 391 393 395 397 399 401 403 405 407 409 411 413 608 610 612 614 616 618 620 622 624 626 628 630 632 634 636 638 736 738 740 742 744 746 748 750 752 754 756 758 760 762 764 766 864 866 868 870 872 874 876 878 880 882 884 886 888 890 892 894 992 994 996 998 1000 1002 1004 1006 1008 1010 1012 1014 1016 1018 1020 1022
1 0 3 4 7 8 11 12 31 32 35 36 39 40 43 44 127 128 131 132 135 136 139 140 159 160 163 164 167 168 171 172 255 256 259 260 263 264 267 268 287 288 291 292 295 296 299 300 383 384 387 388 391 392 395 396 415 416 419 420 423 424 427 428 593 594 597 598 601 602 605 606 625 626 629 630 633 634 637 638 721 722 725 726 729 730 733 734 753 754 757 758 761 762 765 766 849 850 853 854 857 858 861 862 881 882 885 886 889 890 893 894 977 978 981 982 985 986 989 990 1009 1010 1013 1014 1017 1018 1021 1022
1 0 7 8 15 16 23 24 31 32 39 40 47 48 55 56 127 128 135 136 143 144 151 152 159 160 167 168 175 176 183 184 255 256 263 264 271 272 279 280 287 288 295 296 303 304 311 312 383 384 391 392 399 400 407 408 415 416 423 424 431 432 439 440 581 582 589 590 597 598 605 606 613 614 621 622 629 630 637 638 709 710 717 718 725 726 733 734 741 742 749 750 757 758 765 766 837 838 845 846 853 854 861 862 869 870 877 878 885 886 893 894 965 966 973 974 981 982 989 990 997 998 1005 1006 1013 1014 1021 1022
1 1 7 9 15 17 23 25 31 33 39 41 47 49 55 57 127 129 135 137 143 145 151 153 159 161 167 169 175 177 183 185 255 257 263 265 271 273 279 281 287 289 295 297 303 305 311 313 383 385 391 393 399 401 407 409 415 417 423 425 431 433 439 441 580 582 588 590 596 598 604 606 612 614 620 622 628 630 636 638 708 710 716 718 724 726 732 734 740 742 748 750 756 758 764 766 836 838 844 846 852 854 860 862 868 870 876 878 884 886 892 894 964 966 972 974 980 982 988 990 996 998 1004 1006 1012 1014 1020 1022
1 3 7 11 15 19 23 27 31 35 39 43 47 51 55 59 127 131 135 139 143 147 151 155 159 163 167 171 175 179 183 187 255 259 263 267 271 275 279 283 287 291 295 299 303 307 311 315 383 387 391 395 399 403 407 411 415 419 423 427 431 435 439 443 578 582 586 590 594 598 602 606 610 614 618 622 626 630 634 638 706 710 714 718 722 726 730 734 738 742 746 750 754 758 762 766 834 838 842 846 850 854 858 862 866 870 874 878 882 886 890 894 962 966 970 974 978 982 986 990 994 998 1002 1006 1010 1014 1018 1022
1 0 3 4 15 16 19 20 63 64 67 68 79 80 83 84 127 128 131 132 143 144 147 148 191 192 195 196 207 208 211 212 255 256 259 260 271 272 275 276 319 320 323 324 335 336 339 340 383 384 387 388 399 400 403 404 447 448 451 452 463 464 467 468 553 554 557 558 569 570 573 574 617 618 621 622 633 634 637 638 681 682 685 686 697 698 701 702 745 746 749 750 761 762 765 766 809 810 813 814 825 826 829 830 873 874 877 878 889 890 893 894 937 938 941 942 953 954 957 958 1001 1002 1005 1006 1017 1018 1021 1022
1 1 3 5 15 17 19 21 63 65 67 69 79 81 83 85 127 129 131 133 143 145 147 149 191 193 195 197 207 209 211 213 255 257 259 261 271 273 275 277 319 321 323 325 335 337 339 341 383 385 387 389 399 401 403 405 447 449 451 453 463 465 467 469 552 554 556 558 568 570 572 574 616 618 620 622 632 634 636 638 680 682 684 686 696 698 700 702 744 746 748 750 760 762 764 766 808 810 812 814 824 826 828 830 872 874 876 878 888 890 892 894 936 938 940 942 952 954 956 958 1000 1002 1004 1006 1016 1018 1020 1022
1 0 7 8 31 32 39 40 63 64 71 72 95 96 103 104 127 128 135 136 159 160 167 168 191 192 199 200 223 224 231 232 255 256 263 264 287 288 295 296 319 320 327 328 351 352 359 360 383 384 391 392 415 416 423 424 447 448 455 456 479 480 487 488 533 534 541 542 565 566 573 574 597 598 605 606 629 630 637 638 661 662 669 670 693 694 701 702 725 726 733 734 757 758 765 766 789 790 797 798 821 822 829 830 853 854 861 862 885 886 893 894 917 918 925 926 949 950 957 958 981 982 989 990 1013 1014 1021 1022
1 0 1 2 7 8 9 10 15 16 17 18 23 24 25 26 31 32 33 34 39 40 41 42 47 48 49 50 55 56 57 58 451 452 453 454 459 460 461 462 467 468 469 470 475 476 477 478 483 484 485 486 491 492 493 494 499 500 501 502 507 508 509 510 511 512 513 514 519 520 521 522 527 528 529 530 535 536 537 538 543 544 545 546 551 552 553 554 559 560 561 562 567 568 569 570 963 964 965 966 971 972 973 974 979 980 981 982 987 988 989 990 995 996 997 998 1003 1004 1005 1006 1011 1012 1013 1014 1019 1020 1021 1022
1 0 1 2 3 4 5 6 31 32 33 34 35 36 37 38 63 64 65 66 67 68 69 70 95 96 97 98 99 100 101 102 407 408 409 410 411 412 413 414 439 440 441 442 443 444 445 446 471 472 473 474 475 476 477 478 503 504 505 506 507 508 509 510 511 512 513 514 515 516 517 518 543 544 545 546 547 548 549 550 575 576 577 578 579 580 581 582 607 608 609 610 611 612 613 614 919 920 921 922 923 924 925 926 951 952 953 954 955 956 957 958 983 984 985 986 987 988 989 990 1015 1016 1017 1018 1019 1020 1021 1022
1 0 1 2 7 8 9 10 31 32 33 34 39 40 41 42 63 64 65 66 71 72 73 74 95 96 97 98 103 104 105 106 403 404 405 406 411 412 413 414 435 436 437 438 443 444 445 446 467 468 469 470 475 476 477 478 499 500 501 502 507 508 509 510 511 512 513 514 519 520 521 522 543 544 545 546 551 552 553 554 575 576 577 578 583 584 585 586 607 608 609 610 615 616 617 618 915 916 917 918 923 924 925 926 947 948 949 950 955 956 957 958 979 980 981 982 987 988 989 990 1011 1012 1013 1014 1019 1020 1021 1022
1 3 7 11 15 19 23 27 31 35 39 43 47 51 55 59 63 67 71 75 79 83 87 91 95 99 103 107 111 115 119 123 386 390 394 398 402 406 410 414 418 422 426 430 434 438 442 446 450 454 458 462 466 470 474 478 482 486 490 494 498 502 506 510 511 515 519 523 527 531 535 539 543 547 551 555 559 563 567 571 575 579 583 587 591 595 599 603 607 611 615 619 623 627 631 635 898 902 906 910 914 918 922 926 930 934 938 942 946 950 954 958 962 966 970 974 978 982 986 990 994 998 1002 1006 1010 1014 1018 1022
1 0 1 2 7 8 9 10 15 16 17 18 23 24 25 26 127 128 129 130 135 136 137 138 143 144 145 146 151 152 153 154 355 356 357 358 363 364 365 366 371 372 373 374 379 380 381 382 483 484 485 486 491 492 493 494 499 500 501 502 507 508 509 510 511 512 513 514 519 520 521 522 527 528 529 530 535 536 537 538 639 640 641 642 647 648 649 650 655 656 657 658 663 664 665 666 867 868 869 870 875 876 877 878 883 884 885 886 891 892 893 894 995 996 997 998 1003 1004 1005 1006 1011 1012 1013 1014 1019 1020 1021 1022
1 0 1 2 3 4 5 6 31 32 33 34 35 36 37 38 127 128 129 130 131 132 133 134 159 160 161 162 163 164 165 166 343 344 345 346 347 348 349 350 375 376 377 378 379 380 381 382 471 472 473 474 475 476 477 478 503 504 505 506 507 508 509 510 511 512 513 514 515 516 517 518 543 544 545 546 547 548 549 550 639 640 641 642 643 644 645 646 671 672 673 674 675 676 677 678 855 856 857 858 859 860 861 862 887 888 889 890 891 892 893 894 983 984 985 986 987 988 989 990 1015 1016 1017 1018 1019 1020 1021 1022
1 0 1 2 15 16 17 18 31 32 33 34 47 48 49 50 127 128 129 130 143 144 145 146 159 160 161 162 175 176 177 178 331 332 333 334 347 348 349 350 363 364 365 366 379 380 381 382 459 460 461 462 475 476 477 478 491 492 493 494 507 508 509 510 511 512 513 514 527 528 529 530 543 544 545 546 559 560 561 562 639 640 641 642 655 656 657 658 671 672 673 674 687 688 689 690 843 844 845 846 859 860 861 862 875 876 877 878 891 892 893 894 971 972 973 974 987 988 989 990 1003 1004 1005 1006 1019 1020 1021 1022
1 0 3 4 7 8 11 12 63 64 67 68 71 72 75 76 127 128 131 132 135 136 139 140 191 192 195 196 199 200 203 204 305 306 309 310 313 314 317 318 369 370 373 374 377 378 381 382 433 434 437 438 441 442 445 446 497 498 501 502 505 506 509 510 511 512 515 516 519 520 523 524 575 576 579 580 583 584 587 588 639 640 643 644 647 648 651 652 703 704 707 708 711 712 715 716 817 818 821 822 825 826 829 830 881 882 885 886 889 890 893 894 945 946 949 950 953 954 957 958 1009 1010 1013 1014 1017 1018 1021 1022
1 0 7 8 15 16 23 24 63 64 71 72 79 80 87 88 127 128 135 136 143 144 151 152 191 192 199 200 207 208 215 216 293 294 301 302 309 310 317 318 357 358 365 366 373 374 381 382 421 422 429 430 437 438 445 446 485 486 493 494 501 502 509 510 511 512 519 520 527 528 535 536 575 576 583 584 591 592 599 600 639 640 647 648 655 656 663 664 703 704 711 712 719 720 727 728 805 806 813 814 821 822 829 830 869 870 877 878 885 886 893 894 933 934 941 942 949 950 957 958 997 998 1005 1006 1013 1014 1021 1022
1 1 7 9 31 33 39 41 63 65 71 73 95 97 103 105 127 129 135 137 159 161 167 169 191 193 199 201 223 225 231 233 276 278 284 286 308 310 316 318 340 342 348 350 372 374 380 382 404 406 412 414 436 438 444 446 468 470 476 478 500 502 508 510 511 513 519 521 543 545 551 553 575 577 583 585 607 609 615 617 639 641 647 649 671 673 679 681 703 705 711 713 735 737 743 745 788 790 796 798 820 822 828 830 852 854 860 862 884 886 892 894 916 918 924 926 948 950 956 958 980 982 988 990 1012 1014 1020 1022
1 3 15 19 31 35 47 51 63 67 79 83 95 99 111 115 127 131 143 147 159 163 175 179 191 195 207 211 223 227 239 243 266 270 282 286 298 302 314 318 330 334 346 350 362 366 378 382 394 398 410 414 426 430 442 446 458 462 474 478 490 494 506 510 511 515 527 531 543 547 559 563 575 579 591 595 607 611 623 627 639 643 655 659 671 675 687 691 703 707 719 723 735 739 751 755 778 782 794 798 810 814 826 830 842 846 858 862 874 878 890 894 906 910 922 926 938 942 954 958 970 974 986 990 1002 1006 1018 1022
1 0 1 2 7 8 9 10 15 16 17 18 23 24 25 26 227 228 229 230 235 236 237 238 243 244 245 246 251 252 253 254 255 256 257 258 263 264 265 266 271 272 273 274 279 280 281 282 483 484 485 486 491 492 493 494 499 500 501 502 507 508 509 510 511 512 513 514 519 520 521 522 527 528 529 530 535 536 537 538 739 740 741 742 747 748 749 750 755 756 757 758 763 764 765 766 767 768 769 770 775 776 777 778 783 784 785 786 791 792 793 794 995 996 997 998 1003 1004 1005 1006 1011 1012 1013 1014 1019 1020 1021 1022
1 0 3 4 7 8 11 12 15 16 19 20 23 24 27 28 225 226 229 230 233 234 237 238 241 242 245 246 249 250 253 254 255 256 259 260 263 264 267 268 271 272 275 276 279 280 283 284 481 482 485 486 489 490 493 494 497 498 501 502 505 506 509 510 511 512 515 516 519 520 523 524 527 528 531 532 535 536 539 540 737 738 741 742 745 746 749 750 753 754 757 758 761 762 765 766 767 768 771 772 775 776 779 780 783 784 787 788 791 792 795 796 993 994 997 998 1001 1002 1005 1006 1009 1010 1013 1014 1017 1018 1021 1022
1 1 3 5 7 9 11 13 15 17 19 21 23 25 27 29 224 226 228 230 232 234 236 238 240 242 244 246 248 250 252 254 255 257 259 261 263 265 267 269 271 273 275 277 279 281 283 285 480 482 484 486 488 490 492 494 496 498 500 502 504 506 508 510 511 513 515 517 519 521 523 525 527 529 531 533 535 537 539 541 736 738 740 742 744 746 748 750 752 754 756 758 760 762 764 766 767 769 771 773 775 777 779 781 783 785 787 789 791 793 795 797 992 994 996 998 1000 1002 1004 1006 1008 1010 1012 1014 1016 1018 1020 1022
1 0 1 2 3 4 5 6 31 32 33 34 35 36 37 38 215 216 217 218 219 220 221 222 247 248 249 250 251 252 253 254 255 256 257 258 259 260 261 262 287 288 289 290 291 292 293 294 471 472 473 474 475 476 477 478 503 504 505 506 507 508 509 510 511 512 513 514 515 516 517 518 543 544 545 546 547 548 549 550 727 728 729 730 731 732 733 734 759 760 761 762 763 764 765 766 767 768 769 770 771 772 773 774 799 800 801 802 803 804 805 806 983 984 985 986 987 988 989 990 1015 1016 1017 1018 1019 1020 1021 1022
1 0 1 2 7 8 9 10 31 32 33 34 39 40 41 42 211 212 213 214 219 220 221 222 243 244 245 246 251 252 253 254 255 256 257 258 263 264 265 266 287 288 289 290 295 296 297 298 467 468 469 470 475 476 477 478 499 500 501 502 507 508 509 510 511 512 513 514 519 520 521 522 543 544 545 546 551 552 553 554 723 724 725 726 731 732 733 734 755 756 757 758 763 764 765 766 767 768 769 770 775 776 777 778 799 800 801 802 807 808 809 810 979 980 981 982 987 988 989 990 1011 1012 1013 1014 1019 1020 1021 1022
1 0 1 2 15 16 17 18 31 32 33 34 47 48 49 50 203 204 205 206 219 220 221 222 235 236 237 238 251 252 253 254 255 256 257 258 271 272 273 274 287 288 289 290 303 304 305 306 459 460 461 462 475 476 477 478 491 492 493 494 507 508 509 510 511 512 513 514 527 528 529 530 543 544 545 546 559 560 561 562 715 716 717 718 731 732 733 734 747 748 749 750 763 764 765 766 767 768 769 770 783 784 785 786 799 800 801 802 815 816 817 818 971 972 973 974 987 988 989 990 1003 1004 1005 1006 1019 1020 1021 1022
1 3 7 11 15 19 23 27 31 35 39 43 47 51 55 59 194 198 202 206 210 214 218 222 226 230 234 238 242 246 250 254 255 259 263 267 271 275 279 283 287 291 295 299 303 307 311 315 450 454 458 462 466 470 474 478 482 486 490 494 498 502 506 510 511 515 519 523 527 531 535 539 543 547 551 555 559 563 567 571 706 710 714 718 722 726 730 734 738 742 746 750 754 758 762 766 767 771 775 779 783 787 791 795 799 803 807 811 815 819 823 827 962 966 970 974 978 982 986 990 994 998 1002 1006 1010 1014 1018 1022
1 0 3 4 7 8 11 12 63 64 67 68 71 72 75 76 177 178 181 182 185 186 189 190 241 242 245 246 249 250 253 254 255 256 259 260 263 264 267 268 319 320 323 324 327 328 331 332 433 434 437 438 441 442 445 446 497 498 501 502 505 506 509 510 511 512 515 516 519 520 523 524 575 576 579 580 583 584 587 588 689 690 693 694 697 698 701 702 753 754 757 758 761 762 765 766 767 768 771 772 775 776 779 780 831 832 835 836 839 840 843 844 945 946 949 950 953 954 957 958 1009 1010 1013 1014 1017 1018 1021 1022
1 1 3 5 7 9 11 13 63 65 67 69 71 73 75 77 176 178 180 182 184 186 188 190 240 242 244 246 248 250 252 254 255 257 259 261 263 265 267 269 319 321 323 325 327 329 331 333 432 434 436 438 440 442 444 446 496 498 500 502 504 506 508 510 511 513 515 517 519 521 523 525 575 577 579 581 583 585 587 589 688 690 692 694 696 698 700 702 752 754 756 758 760 762 764 766 767 769 771 773 775 777 779 781 831 833 835 837 839 841 843 845 944 946 948 950 952 954 956 958 1008 1010 1012 1014 1016 1018 1020 1022
1 3 15 19 31 35 47 51 63 67 79 83 95 99 111 115 138 142 154 158 170 174 186 190 202 206 218 222 234 238 250 254 255 259 271 275 287 291 303 307 319 323 335 339 351 355 367 371 394 398 410 414 426 430 442 446 458 462 474 478 490 494 506 510 511 515 527 531 543 547 559 563 575 579 591 595 607 611 623 627 650 654 666 670 682 686 698 702 714 718 730 734 746 750 762 766 767 771 783 787 799 803 815 819 831 835 847 851 863 867 879 883 906 910 922 926 938 942 954 958 970 974 986 990 1002 1006 1018 1022
1 0 1 2 3 4 5 6 119 120 121 122 123 124 125 126 127 128 129 130 131 132 133 134 247 248 249 250 251 252 253 254 255 256 257 258 259 260 261 262 375 376 377 378 379 380 381 382 383 384 385 386 387 388 389 390 503 504 505 506 507 508 509 510 511 512 513 514 515 516 517 518 631 632 633 634 635 636 637 638 639 640 641 642 643 644 645 646 759 760 761 762 763 764 765 766 767 768 769 770 771 772 773 774 887 888 889 890 891 892 893 894 895 896 897 898 899 900 901 902 1015 1016 1017 1018 1019 1020 1021 1022
1 3 7 11 15 19 23 27 98 102 106 110 114 118 122 126 127 131 135 139 143 147 151 155 226 230 234 238 242 246 250 254 255 259 263 267 271 275 279 283 354 358 362 366 370 374 378 382 383 387 391 395 399 403 407 411 482 486 490 494 498 502 506 510 511 515 519 523 527 531 535 539 610 614 618 622 626 630 634 638 639 643 647 651 655 659 663 667 738 742 746 750 754 758 762 766 767 771 775 779 783 787 791 795 866 870 874 878 882 886 890 894 895 899 903 907 911 915 919 923 994 998 1002 1006 1010 1014 1018 1022
1 1 3 5 31 33 35 37 88 90 92 94 120 122 124 126 127 129 131 133 159 161 163 165 216 218 220 222 248 250 252 254 255 257 259 261 287 289 291 293 344 346 348 350 376 378 380 382 383 385 387 389 415 417 419 421 472 474 476 478 504 506 508 510 511 513 515 517 543 545 547 549 600 602 604 606 632 634 636 638 639 641 643 645 671 673 675 677 728 730 732 734 760 762 764 766 767 769 771 773 799 801 803 805 856 858 860 862 888 890 892 894 895 897 899 901 927 929 931 933 984 986 988 990 1016 1018 1020 1022
1 0 1 2 59 60 61 62 63 64 65 66 123 124 125 126 127 128 129 130 187 188 189 190 191 192 193 194 251 252 253 254 255 256 257 258 315 316 317 318 319 320 321 322 379 380 381 382 383 384 385 386 443 444 445 446 447 448 449 450 507 508 509 510 511 512 513 514 571 572 573 574 575 576 577 578 635 636 637 638 639 640 641 642 699 700 701 702 703 704 705 706 763 764 765 766 767 768 769 770 827 828 829 830 831 832 833 834 891 892 893 894 895 896 897 898 955 956 957 958 959 960 961 962 1019 1020 1021 1022
1 0 29 30 31 32 61 62 63 64 93 94 95 96 125 126 127 128 157 158 159 160 189 190 191 192 221 222 223 224 253 254 255 256 285 286 287 288 317 318 319 320 349 350 351 352 381 382 383 384 413 414 415 416 445 446 447 448 477 478 479 480 509 510 511 512 541 542 543 544 573 574 575 576 605 606 607 608 637 638 639 640 669 670 671 672 701 702 703 704 733 734 735 736 765 766 767 768 797 798 799 800 829 830 831 832 861 862 863 864 893 894 895 896 925 926 927 928 957 958 959 960 989 990 991 992 1021 1022
1 3 26 30 31 35 58 62 63 67 90 94 95 99 122 126 127 131 154 158 159 163 186 190 191 195 218 222 223 227 250 254 255 259 282 286 287 291 314 318 319 323 346 350 351 355 378 382 383 387 410 414 415 419 442 446 447 451 474 478 479 483 506 510 511 515 538 542 543 547 570 574 575 579 602 606 607 611 634 638 639 643 666 670 671 675 698 702 703 707 730 734 735 739 762 766 767 771 794 798 799 803 826 830 831 835 858 862 863 867 890 894 895 899 922 926 927 931 954 958 959 963 986 990 991 995 1018 1022
